Minimize
	value: tt

Subject to
tt + 1000 s_1_1 > 0.0
tt - t_1_1 - 1000.493798 s_1_1  + 0.493798 s_1_7  > -998.857800
tt + 1000 s_2_1 > 0.0
tt - t_2_1 - 1000.568245 s_2_1  + 0.568245 s_2_7  > -995.182714
tt + 1000 s_1_2 > 0.0
tt - t_1_2 - 1000.493798 s_1_2  + 0.493798 s_1_8  > -998.586089
tt + 1000 s_2_2 > 0.0
tt - t_2_2 - 1000.568245 s_2_2  + 0.568245 s_2_8  > -994.875092
tt + 1000 s_1_3 > 0.0
tt - t_1_3 - 1000.493798 s_1_3  + 0.493798 s_1_8  > -998.504789
tt + 1000 s_2_3 > 0.0
tt - t_2_3 - 1000.568245 s_2_3  + 0.568245 s_2_8  > -992.337940
tt + 1000 s_1_4 > 0.0
tt - t_1_4 - 1000.987596 s_1_4  + 0.493798 s_1_8  + 0.493798 s_1_3  > -999.151322
tt + 1000 s_2_4 > 0.0
tt - t_2_4 - 1001.136490 s_2_4  + 0.568245 s_2_8  + 0.568245 s_2_3  > -995.606608
tt + 1000 s_1_5 > 0.0
tt - t_1_5 - 1000.987596 s_1_5  + 0.493798 s_1_7  + 0.493798 s_1_8  > -999.240778
tt + 1000 s_2_5 > 0.0
tt - t_2_5 - 1001.136490 s_2_5  + 0.568245 s_2_7  + 0.568245 s_2_8  > -995.909525
tt + 1000 s_1_6 > 0.0
tt - t_1_6 - 1002.468990 s_1_6  + 0.493798 s_1_2  + 0.493798 s_1_5  + 0.493798 s_1_1  + 0.493798 s_1_4  + 0.493798 s_1_3  > -999.753500
tt + 1000 s_2_6 > 0.0
tt - t_2_6 - 1002.841225 s_2_6  + 0.568245 s_2_2  + 0.568245 s_2_5  + 0.568245 s_2_1  + 0.568245 s_2_4  + 0.568245 s_2_3  > -996.783000
tt + 1000 s_1_7 > 0.0
tt - t_1_7 - 1000.000000 s_1_7  > -995.529900
tt + 1000 s_2_7 > 0.0
tt - t_2_7 - 1000.000000 s_2_7  > -984.746244
tt + 1000 s_1_8 > 0.0
tt - t_1_8 - 1000.000000 s_1_8  > -998.309878
tt + 1000 s_2_8 > 0.0
tt - t_2_8 - 1000.000000 s_2_8  > -995.493075
s_1_1 + s_2_1 = 1
s_1_2 + s_2_2 = 1
s_1_3 + s_2_3 = 1
s_1_4 + s_2_4 = 1
s_1_5 + s_2_5 = 1
s_1_6 + s_2_6 = 1
s_1_7 + s_2_7 = 1
s_1_8 + s_2_8 = 1
s_1_1 + s_1_2 + 1000 r_1_1_2 >= 2
- s_1_1 - s_1_2 - 1000 r_1_1_2 >= -1001
t_1_1 - t_1_2 - 1000.000000 u_1_1_2 - 0.493798 s_1_2  + 0.493798 s_1_8  + 2000.000000 r_1_1_2 > -998.586089
s_2_1 + s_2_2 + 1000 r_2_1_2 >= 2
- s_2_1 - s_2_2 - 1000 r_2_1_2 >= -1001
t_2_1 - t_2_2 - 1000.000000 u_2_1_2 - 0.568245 s_2_2  + 0.568245 s_2_8  + 2000.000000 r_2_1_2 > -994.875092
s_1_1 + s_1_3 + 1000 r_1_1_3 >= 2
- s_1_1 - s_1_3 - 1000 r_1_1_3 >= -1001
t_1_1 - t_1_3 - 1000.000000 u_1_1_3 - 0.493798 s_1_3  + 0.493798 s_1_8  + 2000.000000 r_1_1_3 > -998.504789
s_2_1 + s_2_3 + 1000 r_2_1_3 >= 2
- s_2_1 - s_2_3 - 1000 r_2_1_3 >= -1001
t_2_1 - t_2_3 - 1000.000000 u_2_1_3 - 0.568245 s_2_3  + 0.568245 s_2_8  + 2000.000000 r_2_1_3 > -992.337940
s_1_1 + s_1_4 + 1000 r_1_1_4 >= 2
- s_1_1 - s_1_4 - 1000 r_1_1_4 >= -1001
t_1_1 - t_1_4 - 1000.000000 u_1_1_4 - 0.987596 s_1_4  + 0.493798 s_1_8  + 0.493798 s_1_3  + 2000.000000 r_1_1_4 > -999.151322
s_2_1 + s_2_4 + 1000 r_2_1_4 >= 2
- s_2_1 - s_2_4 - 1000 r_2_1_4 >= -1001
t_2_1 - t_2_4 - 1000.000000 u_2_1_4 - 1.136490 s_2_4  + 0.568245 s_2_8  + 0.568245 s_2_3  + 2000.000000 r_2_1_4 > -995.606608
s_1_1 + s_1_5 + 1000 r_1_1_5 >= 2
- s_1_1 - s_1_5 - 1000 r_1_1_5 >= -1001
t_1_1 - t_1_5 - 1000.000000 u_1_1_5 - 0.987596 s_1_5  + 0.493798 s_1_7  + 0.493798 s_1_8  + 2000.000000 r_1_1_5 > -999.240778
s_2_1 + s_2_5 + 1000 r_2_1_5 >= 2
- s_2_1 - s_2_5 - 1000 r_2_1_5 >= -1001
t_2_1 - t_2_5 - 1000.000000 u_2_1_5 - 1.136490 s_2_5  + 0.568245 s_2_7  + 0.568245 s_2_8  + 2000.000000 r_2_1_5 > -995.909525
t_1_6 - t_1_1 - 1000.493798 s_1_1  + 0.493798 s_1_7  > -998.857800
t_1_6 - t_2_1 - 1000.568245 s_2_1  + 0.568245 s_2_7  > -995.182714
t_2_6 - t_1_1 - 1000.493798 s_1_1  + 0.493798 s_1_7  > -998.857800
t_2_6 - t_2_1 - 1000.568245 s_2_1  + 0.568245 s_2_7  > -995.182714
t_1_1 - t_1_7 - 1000.000000 s_1_7  > -995.529900
t_1_1 - t_2_7 - 1000.000000 s_2_7  > -984.746244
t_2_1 - t_1_7 - 1000.000000 s_1_7  > -995.529900
t_2_1 - t_2_7 - 1000.000000 s_2_7  > -984.746244
s_1_1 + s_1_8 + 1000 r_1_1_8 >= 2
- s_1_1 - s_1_8 - 1000 r_1_1_8 >= -1001
t_1_1 - t_1_8 - 1000.000000 u_1_1_8 - 0.000000 s_1_8  + 2000.000000 r_1_1_8 > -998.309878
s_2_1 + s_2_8 + 1000 r_2_1_8 >= 2
- s_2_1 - s_2_8 - 1000 r_2_1_8 >= -1001
t_2_1 - t_2_8 - 1000.000000 u_2_1_8 - 0.000000 s_2_8  + 2000.000000 r_2_1_8 > -995.493075
s_1_2 + s_1_1 + 1000 r_1_1_2 >= 2
- s_1_2 - s_1_1 - 1000 r_1_1_2 >= -1001
t_1_2 - t_1_1 + 1000.000000 u_1_1_2 - 0.493798 s_1_1  + 0.493798 s_1_7  + 2000.000000 r_1_1_2 > 1.142200
s_2_2 + s_2_1 + 1000 r_2_1_2 >= 2
- s_2_2 - s_2_1 - 1000 r_2_1_2 >= -1001
t_2_2 - t_2_1 + 1000.000000 u_2_1_2 - 0.568245 s_2_1  + 0.568245 s_2_7  + 2000.000000 r_2_1_2 > 4.817286
s_1_2 + s_1_3 + 1000 r_1_2_3 >= 2
- s_1_2 - s_1_3 - 1000 r_1_2_3 >= -1001
t_1_2 - t_1_3 - 1000.000000 u_1_2_3 - 0.493798 s_1_3  + 0.493798 s_1_8  + 2000.000000 r_1_2_3 > -998.504789
s_2_2 + s_2_3 + 1000 r_2_2_3 >= 2
- s_2_2 - s_2_3 - 1000 r_2_2_3 >= -1001
t_2_2 - t_2_3 - 1000.000000 u_2_2_3 - 0.568245 s_2_3  + 0.568245 s_2_8  + 2000.000000 r_2_2_3 > -992.337940
s_1_2 + s_1_4 + 1000 r_1_2_4 >= 2
- s_1_2 - s_1_4 - 1000 r_1_2_4 >= -1001
t_1_2 - t_1_4 - 1000.000000 u_1_2_4 - 0.987596 s_1_4  + 0.493798 s_1_8  + 0.493798 s_1_3  + 2000.000000 r_1_2_4 > -999.151322
s_2_2 + s_2_4 + 1000 r_2_2_4 >= 2
- s_2_2 - s_2_4 - 1000 r_2_2_4 >= -1001
t_2_2 - t_2_4 - 1000.000000 u_2_2_4 - 1.136490 s_2_4  + 0.568245 s_2_8  + 0.568245 s_2_3  + 2000.000000 r_2_2_4 > -995.606608
s_1_2 + s_1_5 + 1000 r_1_2_5 >= 2
- s_1_2 - s_1_5 - 1000 r_1_2_5 >= -1001
t_1_2 - t_1_5 - 1000.000000 u_1_2_5 - 0.987596 s_1_5  + 0.493798 s_1_7  + 0.493798 s_1_8  + 2000.000000 r_1_2_5 > -999.240778
s_2_2 + s_2_5 + 1000 r_2_2_5 >= 2
- s_2_2 - s_2_5 - 1000 r_2_2_5 >= -1001
t_2_2 - t_2_5 - 1000.000000 u_2_2_5 - 1.136490 s_2_5  + 0.568245 s_2_7  + 0.568245 s_2_8  + 2000.000000 r_2_2_5 > -995.909525
t_1_6 - t_1_2 - 1000.493798 s_1_2  + 0.493798 s_1_8  > -998.586089
t_1_6 - t_2_2 - 1000.568245 s_2_2  + 0.568245 s_2_8  > -994.875092
t_2_6 - t_1_2 - 1000.493798 s_1_2  + 0.493798 s_1_8  > -998.586089
t_2_6 - t_2_2 - 1000.568245 s_2_2  + 0.568245 s_2_8  > -994.875092
s_1_2 + s_1_7 + 1000 r_1_2_7 >= 2
- s_1_2 - s_1_7 - 1000 r_1_2_7 >= -1001
t_1_2 - t_1_7 - 1000.000000 u_1_2_7 - 0.000000 s_1_7  + 2000.000000 r_1_2_7 > -995.529900
s_2_2 + s_2_7 + 1000 r_2_2_7 >= 2
- s_2_2 - s_2_7 - 1000 r_2_2_7 >= -1001
t_2_2 - t_2_7 - 1000.000000 u_2_2_7 - 0.000000 s_2_7  + 2000.000000 r_2_2_7 > -984.746244
t_1_2 - t_1_8 - 1000.000000 s_1_8  > -998.309878
t_1_2 - t_2_8 - 1000.000000 s_2_8  > -995.493075
t_2_2 - t_1_8 - 1000.000000 s_1_8  > -998.309878
t_2_2 - t_2_8 - 1000.000000 s_2_8  > -995.493075
s_1_3 + s_1_1 + 1000 r_1_1_3 >= 2
- s_1_3 - s_1_1 - 1000 r_1_1_3 >= -1001
t_1_3 - t_1_1 + 1000.000000 u_1_1_3 - 0.493798 s_1_1  + 0.493798 s_1_7  + 2000.000000 r_1_1_3 > 1.142200
s_2_3 + s_2_1 + 1000 r_2_1_3 >= 2
- s_2_3 - s_2_1 - 1000 r_2_1_3 >= -1001
t_2_3 - t_2_1 + 1000.000000 u_2_1_3 - 0.568245 s_2_1  + 0.568245 s_2_7  + 2000.000000 r_2_1_3 > 4.817286
s_1_3 + s_1_2 + 1000 r_1_2_3 >= 2
- s_1_3 - s_1_2 - 1000 r_1_2_3 >= -1001
t_1_3 - t_1_2 + 1000.000000 u_1_2_3 - 0.493798 s_1_2  + 0.493798 s_1_8  + 2000.000000 r_1_2_3 > 1.413911
s_2_3 + s_2_2 + 1000 r_2_2_3 >= 2
- s_2_3 - s_2_2 - 1000 r_2_2_3 >= -1001
t_2_3 - t_2_2 + 1000.000000 u_2_2_3 - 0.568245 s_2_2  + 0.568245 s_2_8  + 2000.000000 r_2_2_3 > 5.124908
t_1_4 - t_1_3 - 1000.493798 s_1_3  + 0.493798 s_1_8  > -998.504789
t_1_4 - t_2_3 - 1000.568245 s_2_3  + 0.568245 s_2_8  > -992.337940
t_2_4 - t_1_3 - 1000.493798 s_1_3  + 0.493798 s_1_8  > -998.504789
t_2_4 - t_2_3 - 1000.568245 s_2_3  + 0.568245 s_2_8  > -992.337940
s_1_3 + s_1_5 + 1000 r_1_3_5 >= 2
- s_1_3 - s_1_5 - 1000 r_1_3_5 >= -1001
t_1_3 - t_1_5 - 1000.000000 u_1_3_5 - 0.987596 s_1_5  + 0.493798 s_1_7  + 0.493798 s_1_8  + 2000.000000 r_1_3_5 > -999.240778
s_2_3 + s_2_5 + 1000 r_2_3_5 >= 2
- s_2_3 - s_2_5 - 1000 r_2_3_5 >= -1001
t_2_3 - t_2_5 - 1000.000000 u_2_3_5 - 1.136490 s_2_5  + 0.568245 s_2_7  + 0.568245 s_2_8  + 2000.000000 r_2_3_5 > -995.909525
t_1_6 - t_1_3 - 1000.493798 s_1_3  + 0.493798 s_1_8  > -998.504789
t_1_6 - t_2_3 - 1000.568245 s_2_3  + 0.568245 s_2_8  > -992.337940
t_2_6 - t_1_3 - 1000.493798 s_1_3  + 0.493798 s_1_8  > -998.504789
t_2_6 - t_2_3 - 1000.568245 s_2_3  + 0.568245 s_2_8  > -992.337940
s_1_3 + s_1_7 + 1000 r_1_3_7 >= 2
- s_1_3 - s_1_7 - 1000 r_1_3_7 >= -1001
t_1_3 - t_1_7 - 1000.000000 u_1_3_7 - 0.000000 s_1_7  + 2000.000000 r_1_3_7 > -995.529900
s_2_3 + s_2_7 + 1000 r_2_3_7 >= 2
- s_2_3 - s_2_7 - 1000 r_2_3_7 >= -1001
t_2_3 - t_2_7 - 1000.000000 u_2_3_7 - 0.000000 s_2_7  + 2000.000000 r_2_3_7 > -984.746244
t_1_3 - t_1_8 - 1000.000000 s_1_8  > -998.309878
t_1_3 - t_2_8 - 1000.000000 s_2_8  > -995.493075
t_2_3 - t_1_8 - 1000.000000 s_1_8  > -998.309878
t_2_3 - t_2_8 - 1000.000000 s_2_8  > -995.493075
s_1_4 + s_1_1 + 1000 r_1_1_4 >= 2
- s_1_4 - s_1_1 - 1000 r_1_1_4 >= -1001
t_1_4 - t_1_1 + 1000.000000 u_1_1_4 - 0.493798 s_1_1  + 0.493798 s_1_7  + 2000.000000 r_1_1_4 > 1.142200
s_2_4 + s_2_1 + 1000 r_2_1_4 >= 2
- s_2_4 - s_2_1 - 1000 r_2_1_4 >= -1001
t_2_4 - t_2_1 + 1000.000000 u_2_1_4 - 0.568245 s_2_1  + 0.568245 s_2_7  + 2000.000000 r_2_1_4 > 4.817286
s_1_4 + s_1_2 + 1000 r_1_2_4 >= 2
- s_1_4 - s_1_2 - 1000 r_1_2_4 >= -1001
t_1_4 - t_1_2 + 1000.000000 u_1_2_4 - 0.493798 s_1_2  + 0.493798 s_1_8  + 2000.000000 r_1_2_4 > 1.413911
s_2_4 + s_2_2 + 1000 r_2_2_4 >= 2
- s_2_4 - s_2_2 - 1000 r_2_2_4 >= -1001
t_2_4 - t_2_2 + 1000.000000 u_2_2_4 - 0.568245 s_2_2  + 0.568245 s_2_8  + 2000.000000 r_2_2_4 > 5.124908
s_1_4 + s_1_5 + 1000 r_1_4_5 >= 2
- s_1_4 - s_1_5 - 1000 r_1_4_5 >= -1001
t_1_4 - t_1_5 - 1000.000000 u_1_4_5 - 0.987596 s_1_5  + 0.493798 s_1_7  + 0.493798 s_1_8  + 2000.000000 r_1_4_5 > -999.240778
s_2_4 + s_2_5 + 1000 r_2_4_5 >= 2
- s_2_4 - s_2_5 - 1000 r_2_4_5 >= -1001
t_2_4 - t_2_5 - 1000.000000 u_2_4_5 - 1.136490 s_2_5  + 0.568245 s_2_7  + 0.568245 s_2_8  + 2000.000000 r_2_4_5 > -995.909525
t_1_6 - t_1_4 - 1000.987596 s_1_4  + 0.493798 s_1_8  + 0.493798 s_1_3  > -999.151322
t_1_6 - t_2_4 - 1001.136490 s_2_4  + 0.568245 s_2_8  + 0.568245 s_2_3  > -995.606608
t_2_6 - t_1_4 - 1000.987596 s_1_4  + 0.493798 s_1_8  + 0.493798 s_1_3  > -999.151322
t_2_6 - t_2_4 - 1001.136490 s_2_4  + 0.568245 s_2_8  + 0.568245 s_2_3  > -995.606608
s_1_4 + s_1_7 + 1000 r_1_4_7 >= 2
- s_1_4 - s_1_7 - 1000 r_1_4_7 >= -1001
t_1_4 - t_1_7 - 1000.000000 u_1_4_7 - 0.000000 s_1_7  + 2000.000000 r_1_4_7 > -995.529900
s_2_4 + s_2_7 + 1000 r_2_4_7 >= 2
- s_2_4 - s_2_7 - 1000 r_2_4_7 >= -1001
t_2_4 - t_2_7 - 1000.000000 u_2_4_7 - 0.000000 s_2_7  + 2000.000000 r_2_4_7 > -984.746244
t_1_4 - t_1_8 - 1000.000000 s_1_8  > -998.309878
t_1_4 - t_2_8 - 1000.000000 s_2_8  > -995.493075
t_2_4 - t_1_8 - 1000.000000 s_1_8  > -998.309878
t_2_4 - t_2_8 - 1000.000000 s_2_8  > -995.493075
s_1_5 + s_1_1 + 1000 r_1_1_5 >= 2
- s_1_5 - s_1_1 - 1000 r_1_1_5 >= -1001
t_1_5 - t_1_1 + 1000.000000 u_1_1_5 - 0.493798 s_1_1  + 0.493798 s_1_7  + 2000.000000 r_1_1_5 > 1.142200
s_2_5 + s_2_1 + 1000 r_2_1_5 >= 2
- s_2_5 - s_2_1 - 1000 r_2_1_5 >= -1001
t_2_5 - t_2_1 + 1000.000000 u_2_1_5 - 0.568245 s_2_1  + 0.568245 s_2_7  + 2000.000000 r_2_1_5 > 4.817286
s_1_5 + s_1_2 + 1000 r_1_2_5 >= 2
- s_1_5 - s_1_2 - 1000 r_1_2_5 >= -1001
t_1_5 - t_1_2 + 1000.000000 u_1_2_5 - 0.493798 s_1_2  + 0.493798 s_1_8  + 2000.000000 r_1_2_5 > 1.413911
s_2_5 + s_2_2 + 1000 r_2_2_5 >= 2
- s_2_5 - s_2_2 - 1000 r_2_2_5 >= -1001
t_2_5 - t_2_2 + 1000.000000 u_2_2_5 - 0.568245 s_2_2  + 0.568245 s_2_8  + 2000.000000 r_2_2_5 > 5.124908
s_1_5 + s_1_3 + 1000 r_1_3_5 >= 2
- s_1_5 - s_1_3 - 1000 r_1_3_5 >= -1001
t_1_5 - t_1_3 + 1000.000000 u_1_3_5 - 0.493798 s_1_3  + 0.493798 s_1_8  + 2000.000000 r_1_3_5 > 1.495211
s_2_5 + s_2_3 + 1000 r_2_3_5 >= 2
- s_2_5 - s_2_3 - 1000 r_2_3_5 >= -1001
t_2_5 - t_2_3 + 1000.000000 u_2_3_5 - 0.568245 s_2_3  + 0.568245 s_2_8  + 2000.000000 r_2_3_5 > 7.662060
s_1_5 + s_1_4 + 1000 r_1_4_5 >= 2
- s_1_5 - s_1_4 - 1000 r_1_4_5 >= -1001
t_1_5 - t_1_4 + 1000.000000 u_1_4_5 - 0.987596 s_1_4  + 0.493798 s_1_8  + 0.493798 s_1_3  + 2000.000000 r_1_4_5 > 0.848678
s_2_5 + s_2_4 + 1000 r_2_4_5 >= 2
- s_2_5 - s_2_4 - 1000 r_2_4_5 >= -1001
t_2_5 - t_2_4 + 1000.000000 u_2_4_5 - 1.136490 s_2_4  + 0.568245 s_2_8  + 0.568245 s_2_3  + 2000.000000 r_2_4_5 > 4.393392
t_1_6 - t_1_5 - 1000.987596 s_1_5  + 0.493798 s_1_7  + 0.493798 s_1_8  > -999.240778
t_1_6 - t_2_5 - 1001.136490 s_2_5  + 0.568245 s_2_7  + 0.568245 s_2_8  > -995.909525
t_2_6 - t_1_5 - 1000.987596 s_1_5  + 0.493798 s_1_7  + 0.493798 s_1_8  > -999.240778
t_2_6 - t_2_5 - 1001.136490 s_2_5  + 0.568245 s_2_7  + 0.568245 s_2_8  > -995.909525
t_1_5 - t_1_7 - 1000.000000 s_1_7  > -995.529900
t_1_5 - t_2_7 - 1000.000000 s_2_7  > -984.746244
t_2_5 - t_1_7 - 1000.000000 s_1_7  > -995.529900
t_2_5 - t_2_7 - 1000.000000 s_2_7  > -984.746244
t_1_5 - t_1_8 - 1000.000000 s_1_8  > -998.309878
t_1_5 - t_2_8 - 1000.000000 s_2_8  > -995.493075
t_2_5 - t_1_8 - 1000.000000 s_1_8  > -998.309878
t_2_5 - t_2_8 - 1000.000000 s_2_8  > -995.493075
s_1_7 + s_1_2 + 1000 r_1_2_7 >= 2
- s_1_7 - s_1_2 - 1000 r_1_2_7 >= -1001
t_1_7 - t_1_2 + 1000.000000 u_1_2_7 - 0.493798 s_1_2  + 0.493798 s_1_8  + 2000.000000 r_1_2_7 > 1.413911
s_2_7 + s_2_2 + 1000 r_2_2_7 >= 2
- s_2_7 - s_2_2 - 1000 r_2_2_7 >= -1001
t_2_7 - t_2_2 + 1000.000000 u_2_2_7 - 0.568245 s_2_2  + 0.568245 s_2_8  + 2000.000000 r_2_2_7 > 5.124908
s_1_7 + s_1_3 + 1000 r_1_3_7 >= 2
- s_1_7 - s_1_3 - 1000 r_1_3_7 >= -1001
t_1_7 - t_1_3 + 1000.000000 u_1_3_7 - 0.493798 s_1_3  + 0.493798 s_1_8  + 2000.000000 r_1_3_7 > 1.495211
s_2_7 + s_2_3 + 1000 r_2_3_7 >= 2
- s_2_7 - s_2_3 - 1000 r_2_3_7 >= -1001
t_2_7 - t_2_3 + 1000.000000 u_2_3_7 - 0.568245 s_2_3  + 0.568245 s_2_8  + 2000.000000 r_2_3_7 > 7.662060
s_1_7 + s_1_4 + 1000 r_1_4_7 >= 2
- s_1_7 - s_1_4 - 1000 r_1_4_7 >= -1001
t_1_7 - t_1_4 + 1000.000000 u_1_4_7 - 0.987596 s_1_4  + 0.493798 s_1_8  + 0.493798 s_1_3  + 2000.000000 r_1_4_7 > 0.848678
s_2_7 + s_2_4 + 1000 r_2_4_7 >= 2
- s_2_7 - s_2_4 - 1000 r_2_4_7 >= -1001
t_2_7 - t_2_4 + 1000.000000 u_2_4_7 - 1.136490 s_2_4  + 0.568245 s_2_8  + 0.568245 s_2_3  + 2000.000000 r_2_4_7 > 4.393392
s_1_7 + s_1_8 + 1000 r_1_7_8 >= 2
- s_1_7 - s_1_8 - 1000 r_1_7_8 >= -1001
t_1_7 - t_1_8 - 1000.000000 u_1_7_8 - 0.000000 s_1_8  + 2000.000000 r_1_7_8 > -998.309878
s_2_7 + s_2_8 + 1000 r_2_7_8 >= 2
- s_2_7 - s_2_8 - 1000 r_2_7_8 >= -1001
t_2_7 - t_2_8 - 1000.000000 u_2_7_8 - 0.000000 s_2_8  + 2000.000000 r_2_7_8 > -995.493075
s_1_8 + s_1_1 + 1000 r_1_1_8 >= 2
- s_1_8 - s_1_1 - 1000 r_1_1_8 >= -1001
t_1_8 - t_1_1 + 1000.000000 u_1_1_8 - 0.493798 s_1_1  + 0.493798 s_1_7  + 2000.000000 r_1_1_8 > 1.142200
s_2_8 + s_2_1 + 1000 r_2_1_8 >= 2
- s_2_8 - s_2_1 - 1000 r_2_1_8 >= -1001
t_2_8 - t_2_1 + 1000.000000 u_2_1_8 - 0.568245 s_2_1  + 0.568245 s_2_7  + 2000.000000 r_2_1_8 > 4.817286
s_1_8 + s_1_7 + 1000 r_1_7_8 >= 2
- s_1_8 - s_1_7 - 1000 r_1_7_8 >= -1001
t_1_8 - t_1_7 + 1000.000000 u_1_7_8 - 0.000000 s_1_7  + 2000.000000 r_1_7_8 > 4.470100
s_2_8 + s_2_7 + 1000 r_2_7_8 >= 2
- s_2_8 - s_2_7 - 1000 r_2_7_8 >= -1001
t_2_8 - t_2_7 + 1000.000000 u_2_7_8 - 0.000000 s_2_7  + 2000.000000 r_2_7_8 > 15.253756
Binary
s_1_1
s_2_1
s_1_2
s_2_2
s_1_3
s_2_3
s_1_4
s_2_4
s_1_5
s_2_5
s_1_6
s_2_6
s_1_7
s_2_7
s_1_8
s_2_8
u_1_1_2
r_1_1_2
u_2_1_2
r_2_1_2
u_1_1_3
r_1_1_3
u_2_1_3
r_2_1_3
u_1_1_4
r_1_1_4
u_2_1_4
r_2_1_4
u_1_1_5
r_1_1_5
u_2_1_5
r_2_1_5
u_1_1_8
r_1_1_8
u_2_1_8
r_2_1_8
u_1_2_3
r_1_2_3
u_2_2_3
r_2_2_3
u_1_2_4
r_1_2_4
u_2_2_4
r_2_2_4
u_1_2_5
r_1_2_5
u_2_2_5
r_2_2_5
u_1_2_7
r_1_2_7
u_2_2_7
r_2_2_7
u_1_3_5
r_1_3_5
u_2_3_5
r_2_3_5
u_1_3_7
r_1_3_7
u_2_3_7
r_2_3_7
u_1_4_5
r_1_4_5
u_2_4_5
r_2_4_5
u_1_4_7
r_1_4_7
u_2_4_7
r_2_4_7
u_1_7_8
r_1_7_8
u_2_7_8
r_2_7_8

End
